nN = 10;
nR = 60;
nH = 1;

a = [[16, 25, 25, 19, 16, 20, 16, 16, 18, 16, 18, 16, 21, 18, 17, 20, 16, 18, 19, 15, 19, 17, 15, 25, 22, 24, 19, 22, 15, 25, 19, 20, 18, 25, 24, 20, 23, 21, 24, 19, 18, 25, 21, 18, 22, 15, 15, 24, 17, 24, 21, 19, 18, 24, 18, 17, 23, 24, 16, 21], [20, 20, 21, 18, 23, 15, 20, 25, 17, 15, 23, 15, 18, 24, 18, 22, 20, 24, 15, 24, 24, 18, 18, 21, 19, 16, 25, 16, 21, 21, 17, 25, 15, 24, 25, 21, 23, 19, 23, 19, 25, 23, 25, 23, 16, 18, 21, 23, 21, 15, 24, 21, 20, 21, 22, 16, 23, 21, 24, 22], [25, 19, 17, 21, 20, 23, 22, 22, 20, 15, 17, 25, 19, 24, 19, 15, 18, 15, 25, 23, 15, 15, 23, 20, 18, 22, 24, 19, 24, 15, 18, 15, 15, 23, 25, 19, 19, 19, 20, 24, 22, 25, 21, 15, 16, 22, 23, 15, 15, 24, 24, 15, 18, 24, 20, 25, 18, 16, 17, 15], [18, 25, 20, 19, 16, 20, 16, 19, 16, 17, 23, 23, 16, 17, 16, 24, 21, 23, 24, 17, 23, 16, 15, 23, 21, 17, 23, 23, 17, 24, 24, 21, 19, 24, 23, 25, 18, 17, 19, 17, 17, 20, 21, 24, 15, 24, 25, 24, 23, 15, 23, 18, 22, 16, 23, 16, 21, 17, 21, 25], [16, 20, 24, 17, 17, 23, 17, 17, 17, 18, 22, 24, 23, 23, 20, 23, 15, 21, 25, 17, 15, 18, 19, 21, 23, 18, 21, 21, 24, 18, 21, 15, 20, 23, 23, 23, 23, 19, 16, 24, 22, 20, 22, 19, 24, 24, 18, 25, 23, 15, 18, 23, 22, 17, 23, 17, 25, 19, 25, 18], [19, 15, 22, 21, 21, 17, 15, 24, 15, 24, 25, 21, 25, 19, 17, 23, 21, 20, 16, 24, 24, 23, 24, 23, 16, 23, 20, 20, 17, 17, 19, 19, 15, 19, 23, 19, 19, 22, 20, 15, 23, 19, 24, 19, 25, 23, 18, 15, 15, 15, 15, 19, 16, 19, 24, 17, 17, 22, 17, 15], [23, 24, 16, 18, 24, 23, 16, 21, 21, 19, 15, 22, 24, 18, 17, 17, 16, 22, 18, 16, 17, 20, 19, 16, 19, 18, 17, 16, 20, 18, 18, 18, 19, 18, 17, 16, 16, 18, 25, 25, 19, 25, 24, 21, 25, 22, 22, 18, 18, 16, 15, 21, 15, 17, 22, 23, 15, 19, 19, 18], [17, 23, 23, 23, 16, 17, 23, 19, 17, 25, 16, 20, 24, 22, 17, 19, 25, 17, 24, 18, 18, 20, 23, 20, 18, 24, 18, 18, 18, 17, 21, 22, 23, 24, 17, 20, 21, 19, 16, 19, 15, 21, 19, 24, 18, 22, 24, 15, 16, 21, 24, 25, 17, 22, 17, 22, 15, 18, 19, 16], [16, 25, 24, 17, 15, 25, 16, 15, 16, 25, 25, 20, 19, 20, 15, 18, 17, 23, 22, 15, 25, 19, 22, 22, 16, 17, 18, 24, 21, 19, 22, 23, 25, 15, 25, 24, 25, 15, 15, 24, 20, 24, 25, 20, 15, 25, 22, 17, 21, 23, 25, 17, 16, 23, 20, 19, 23, 24, 20, 20], [19, 20, 15, 18, 23, 21, 20, 23, 15, 24, 25, 24, 21, 20, 21, 25, 19, 15, 20, 21, 22, 15, 25, 24, 18, 16, 16, 22, 23, 20, 21, 22, 15, 21, 18, 19, 22, 18, 23, 25, 18, 16, 20, 20, 15, 25, 18, 23, 17, 22, 24, 23, 22, 20, 21, 18, 19, 20, 22, 24]];
c = [[[0, 0, 0, 0, 0, 0, 0, 0, 0, 0, 0, 0, 0, 0, 0, 0, 0, 0, 0, 0, 0, 0, 0, 0, 0, 0, 0, 0, 0, 0, 0, 0, 0, 0, 0, 0, 0, 0, 0, 0, 0, 0, 0, 0, 0, 0, 0, 0, 0, 0, 0, 0, 0, 0, 0, 0, 0, 0, 0, 0], [37, 50, 32, 33, 48, 35, 36, 33, 32, 40, 43, 36, 43, 49, 44, 45, 38, 44, 44, 50, 45, 45, 45, 32, 41, 33, 44, 47, 48, 40, 50, 30, 37, 33, 42, 37, 37, 39, 50, 46, 48, 45, 34, 44, 33, 49, 38, 35, 31, 34, 42, 48, 50, 35, 44, 38, 39, 44, 50, 45], [45, 34, 35, 38, 46, 40, 49, 35, 32, 39, 36, 46, 35, 32, 37, 44, 34, 46, 45, 31, 41, 31, 33, 34, 45, 42, 49, 32, 32, 31, 39, 34, 42, 32, 46, 37, 38, 46, 38, 38, 39, 38, 38, 42, 39, 34, 40, 41, 30, 50, 45, 44, 41, 50, 46, 48, 47, 32, 34, 39], [30, 37, 45, 32, 45, 46, 39, 45, 39, 30, 32, 48, 38, 31, 41, 48, 43, 47, 50, 42, 45, 46, 44, 41, 32, 43, 45, 41, 42, 45, 34, 37, 38, 45, 36, 48, 49, 48, 42, 44, 34, 31, 38, 46, 34, 39, 33, 48, 47, 34, 46, 44, 46, 30, 49, 40, 41, 46, 30, 49], [47, 44, 48, 37, 48, 37, 32, 49, 43, 48, 47, 35, 42, 38, 46, 41, 37, 44, 45, 33, 46, 30, 38, 33, 49, 33, 42, 41, 42, 37, 40, 32, 32, 46, 37, 40, 39, 40, 43, 50, 42, 41, 41, 36, 42, 34, 39, 44, 42, 35, 32, 33, 31, 42, 39, 39, 37, 31, 39, 43], [31, 48, 38, 43, 41, 38, 33, 45, 46, 48, 50, 34, 30, 32, 42, 31, 37, 47, 47, 48, 49, 32, 50, 34, 37, 43, 40, 42, 38, 49, 30, 41, 34, 47, 34, 47, 44, 35, 49, 32, 31, 41, 40, 45, 40, 32, 41, 33, 47, 48, 33, 32, 41, 49, 38, 32, 48, 36, 45, 43], [47, 43, 32, 30, 39, 49, 36, 44, 30, 42, 49, 35, 41, 44, 34, 44, 44, 33, 49, 34, 40, 34, 34, 49, 50, 39, 45, 35, 50, 40, 32, 49, 35, 44, 32, 33, 33, 31, 44, 39, 39, 31, 32, 41, 34, 30, 41, 34, 40, 50, 34, 34, 43, 36, 35, 47, 44, 43, 35, 39], [30, 32, 37, 42, 43, 48, 32, 50, 31, 35, 41, 44, 39, 38, 46, 32, 31, 47, 41, 36, 44, 50, 44, 43, 49, 47, 39, 33, 30, 46, 33, 48, 40, 38, 41, 49, 32, 38, 35, 49, 50, 45, 41, 31, 34, 36, 41, 47, 47, 35, 31, 49, 50, 37, 43, 41, 48, 41, 49, 48], [30, 38, 41, 33, 33, 35, 44, 47, 39, 39, 40, 35, 37, 31, 38, 37, 32, 37, 35, 36, 32, 34, 30, 35, 36, 48, 33, 48, 49, 30, 48, 46, 32, 35, 37, 49, 33, 39, 37, 36, 40, 48, 49, 30, 50, 40, 43, 43, 48, 39, 50, 48, 32, 49, 35, 43, 38, 35, 38, 35], [46, 48, 34, 48, 49, 50, 50, 34, 30, 35, 46, 46, 38, 38, 48, 43, 45, 36, 35, 38, 32, 40, 43, 43, 36, 43, 33, 33, 42, 46, 30, 50, 37, 45, 33, 44, 39, 44, 40, 30, 30, 36, 40, 43, 46, 32, 40, 36, 30, 42, 42, 47, 32, 33, 32, 46, 42, 31, 44, 37]], [[0, 0, 0, 0, 0, 0, 0, 0, 0, 0, 0, 0, 0, 0, 0, 0, 0, 0, 0, 0, 0, 0, 0, 0, 0, 0, 0, 0, 0, 0, 0, 0, 0, 0, 0, 0, 0, 0, 0, 0, 0, 0, 0, 0, 0, 0, 0, 0, 0, 0, 0, 0, 0, 0, 0, 0, 0, 0, 0, 0], [0, 0, 0, 0, 0, 0, 0, 0, 0, 0, 0, 0, 0, 0, 0, 0, 0, 0, 0, 0, 0, 0, 0, 0, 0, 0, 0, 0, 0, 0, 0, 0, 0, 0, 0, 0, 0, 0, 0, 0, 0, 0, 0, 0, 0, 0, 0, 0, 0, 0, 0, 0, 0, 0, 0, 0, 0, 0, 0, 0], [49, 34, 31, 42, 41, 32, 32, 43, 44, 35, 46, 47, 47, 32, 47, 31, 47, 32, 47, 39, 32, 49, 31, 34, 37, 32, 38, 41, 41, 39, 45, 44, 45, 50, 31, 39, 42, 35, 30, 36, 35, 35, 36, 38, 47, 42, 34, 36, 37, 44, 41, 47, 35, 39, 47, 34, 41, 39, 43, 44], [41, 45, 47, 42, 33, 37, 42, 32, 39, 40, 39, 38, 39, 34, 43, 45, 46, 36, 45, 46, 37, 40, 37, 43, 37, 45, 31, 48, 39, 45, 49, 34, 30, 38, 41, 33, 30, 39, 35, 41, 47, 50, 31, 31, 35, 49, 44, 50, 42, 49, 39, 41, 41, 44, 36, 37, 42, 36, 39, 42], [42, 36, 45, 40, 50, 32, 44, 39, 39, 36, 42, 47, 49, 41, 37, 48, 35, 33, 47, 49, 41, 34, 31, 37, 40, 36, 32, 38, 40, 39, 42, 49, 50, 30, 40, 35, 30, 43, 34, 42, 30, 49, 36, 50, 41, 32, 32, 35, 37, 36, 48, 40, 40, 44, 39, 48, 39, 40, 44, 43], [45, 39, 31, 35, 43, 33, 32, 41, 37, 32, 38, 42, 33, 33, 36, 39, 41, 50, 50, 45, 45, 36, 48, 43, 40, 49, 36, 43, 41, 49, 45, 43, 39, 47, 45, 45, 42, 50, 49, 43, 48, 37, 49, 36, 48, 31, 42, 38, 35, 36, 47, 44, 45, 49, 32, 32, 48, 40, 46, 48], [30, 49, 34, 44, 36, 41, 46, 45, 39, 40, 48, 41, 49, 31, 37, 47, 35, 33, 40, 33, 43, 31, 47, 44, 36, 30, 49, 46, 38, 39, 47, 44, 39, 35, 42, 46, 38, 45, 37, 33, 36, 33, 49, 31, 42, 33, 31, 34, 31, 48, 46, 31, 34, 45, 33, 42, 36, 39, 46, 32], [35, 31, 44, 49, 38, 40, 35, 37, 34, 33, 44, 43, 38, 32, 30, 48, 42, 50, 47, 45, 34, 41, 33, 34, 48, 46, 45, 38, 39, 34, 39, 47, 30, 48, 33, 41, 38, 49, 41, 44, 35, 35, 30, 31, 37, 49, 43, 36, 40, 50, 33, 33, 45, 31, 38, 34, 37, 41, 31, 44], [43, 40, 40, 42, 33, 42, 46, 44, 42, 48, 45, 50, 45, 46, 46, 39, 39, 31, 42, 34, 43, 37, 38, 47, 40, 41, 30, 45, 31, 31, 30, 35, 38, 48, 31, 47, 35, 32, 36, 31, 44, 47, 47, 44, 50, 45, 48, 42, 30, 42, 31, 30, 40, 46, 35, 37, 44, 41, 49, 37], [49, 30, 41, 36, 39, 30, 44, 34, 32, 34, 47, 32, 35, 40, 36, 50, 50, 45, 47, 49, 42, 35, 48, 49, 49, 37, 50, 37, 48, 45, 37, 42, 49, 41, 49, 48, 50, 49, 45, 47, 40, 32, 32, 35, 34, 47, 30, 44, 45, 39, 31, 32, 47, 45, 33, 42, 38, 32, 47, 30]], [[0, 0, 0, 0, 0, 0, 0, 0, 0, 0, 0, 0, 0, 0, 0, 0, 0, 0, 0, 0, 0, 0, 0, 0, 0, 0, 0, 0, 0, 0, 0, 0, 0, 0, 0, 0, 0, 0, 0, 0, 0, 0, 0, 0, 0, 0, 0, 0, 0, 0, 0, 0, 0, 0, 0, 0, 0, 0, 0, 0], [0, 0, 0, 0, 0, 0, 0, 0, 0, 0, 0, 0, 0, 0, 0, 0, 0, 0, 0, 0, 0, 0, 0, 0, 0, 0, 0, 0, 0, 0, 0, 0, 0, 0, 0, 0, 0, 0, 0, 0, 0, 0, 0, 0, 0, 0, 0, 0, 0, 0, 0, 0, 0, 0, 0, 0, 0, 0, 0, 0], [0, 0, 0, 0, 0, 0, 0, 0, 0, 0, 0, 0, 0, 0, 0, 0, 0, 0, 0, 0, 0, 0, 0, 0, 0, 0, 0, 0, 0, 0, 0, 0, 0, 0, 0, 0, 0, 0, 0, 0, 0, 0, 0, 0, 0, 0, 0, 0, 0, 0, 0, 0, 0, 0, 0, 0, 0, 0, 0, 0], [40, 30, 40, 45, 35, 32, 50, 44, 36, 41, 39, 48, 38, 31, 33, 33, 40, 35, 37, 46, 47, 43, 40, 36, 49, 37, 47, 31, 49, 34, 43, 41, 42, 32, 31, 41, 38, 50, 45, 37, 36, 33, 40, 30, 44, 33, 38, 48, 32, 30, 39, 38, 34, 43, 41, 48, 31, 39, 39, 38], [34, 39, 30, 35, 40, 40, 46, 31, 39, 49, 50, 37, 32, 44, 41, 41, 34, 41, 42, 35, 41, 41, 49, 50, 43, 46, 37, 31, 43, 40, 48, 33, 49, 44, 33, 39, 34, 45, 30, 30, 37, 49, 32, 38, 36, 37, 41, 38, 47, 36, 37, 36, 39, 40, 32, 34, 38, 39, 42, 44], [50, 35, 46, 34, 45, 47, 35, 35, 50, 34, 37, 36, 31, 46, 45, 35, 42, 48, 44, 39, 43, 33, 38, 32, 47, 37, 47, 36, 34, 30, 41, 49, 44, 49, 31, 43, 47, 37, 35, 43, 49, 34, 38, 41, 30, 47, 30, 45, 37, 40, 34, 40, 49, 48, 30, 48, 49, 40, 47, 39], [35, 49, 37, 41, 31, 31, 31, 32, 49, 37, 41, 36, 49, 47, 42, 46, 48, 30, 33, 31, 33, 41, 47, 45, 42, 50, 43, 45, 34, 31, 43, 38, 45, 47, 44, 39, 50, 35, 37, 35, 32, 31, 43, 41, 38, 46, 31, 39, 41, 48, 43, 49, 42, 34, 48, 44, 45, 44, 36, 38], [41, 36, 42, 42, 42, 33, 33, 47, 47, 40, 33, 39, 35, 41, 33, 34, 30, 44, 34, 50, 39, 40, 36, 35, 43, 31, 46, 35, 44, 42, 42, 43, 41, 48, 47, 34, 49, 50, 38, 50, 31, 34, 35, 32, 41, 38, 32, 34, 39, 42, 47, 50, 40, 32, 37, 35, 30, 48, 31, 40], [41, 34, 43, 33, 37, 49, 32, 44, 32, 38, 30, 39, 40, 45, 40, 47, 39, 38, 35, 41, 41, 46, 50, 44, 37, 35, 41, 39, 35, 33, 39, 49, 31, 40, 42, 46, 42, 32, 42, 48, 35, 50, 46, 32, 48, 38, 43, 40, 48, 34, 43, 33, 49, 36, 47, 31, 46, 47, 37, 37], [36, 46, 31, 35, 46, 31, 33, 47, 30, 43, 30, 34, 30, 46, 31, 41, 36, 44, 31, 48, 35, 32, 31, 40, 41, 33, 44, 50, 31, 35, 30, 47, 31, 48, 35, 43, 37, 33, 43, 30, 46, 42, 43, 43, 45, 48, 38, 38, 35, 38, 45, 44, 39, 45, 40, 47, 31, 46, 42, 39]], [[0, 0, 0, 0, 0, 0, 0, 0, 0, 0, 0, 0, 0, 0, 0, 0, 0, 0, 0, 0, 0, 0, 0, 0, 0, 0, 0, 0, 0, 0, 0, 0, 0, 0, 0, 0, 0, 0, 0, 0, 0, 0, 0, 0, 0, 0, 0, 0, 0, 0, 0, 0, 0, 0, 0, 0, 0, 0, 0, 0], [0, 0, 0, 0, 0, 0, 0, 0, 0, 0, 0, 0, 0, 0, 0, 0, 0, 0, 0, 0, 0, 0, 0, 0, 0, 0, 0, 0, 0, 0, 0, 0, 0, 0, 0, 0, 0, 0, 0, 0, 0, 0, 0, 0, 0, 0, 0, 0, 0, 0, 0, 0, 0, 0, 0, 0, 0, 0, 0, 0], [0, 0, 0, 0, 0, 0, 0, 0, 0, 0, 0, 0, 0, 0, 0, 0, 0, 0, 0, 0, 0, 0, 0, 0, 0, 0, 0, 0, 0, 0, 0, 0, 0, 0, 0, 0, 0, 0, 0, 0, 0, 0, 0, 0, 0, 0, 0, 0, 0, 0, 0, 0, 0, 0, 0, 0, 0, 0, 0, 0], [0, 0, 0, 0, 0, 0, 0, 0, 0, 0, 0, 0, 0, 0, 0, 0, 0, 0, 0, 0, 0, 0, 0, 0, 0, 0, 0, 0, 0, 0, 0, 0, 0, 0, 0, 0, 0, 0, 0, 0, 0, 0, 0, 0, 0, 0, 0, 0, 0, 0, 0, 0, 0, 0, 0, 0, 0, 0, 0, 0], [39, 31, 33, 44, 36, 49, 48, 42, 44, 49, 31, 36, 43, 34, 31, 46, 48, 41, 39, 34, 48, 32, 43, 42, 33, 32, 42, 43, 39, 46, 50, 49, 35, 37, 40, 32, 32, 46, 36, 34, 48, 34, 44, 42, 31, 32, 43, 41, 49, 35, 47, 37, 38, 34, 33, 31, 40, 50, 47, 46], [48, 30, 32, 48, 45, 48, 47, 37, 47, 46, 41, 39, 49, 35, 38, 31, 40, 43, 39, 46, 34, 41, 34, 49, 42, 45, 38, 44, 40, 37, 46, 47, 50, 31, 46, 50, 49, 34, 48, 32, 39, 35, 43, 41, 40, 36, 33, 47, 49, 46, 34, 43, 35, 30, 42, 38, 31, 43, 35, 44], [49, 44, 44, 45, 46, 37, 43, 41, 44, 43, 48, 44, 33, 36, 38, 40, 46, 39, 32, 50, 30, 46, 49, 44, 33, 30, 43, 45, 47, 40, 44, 41, 49, 50, 31, 41, 45, 44, 47, 34, 32, 35, 47, 37, 35, 48, 47, 36, 36, 31, 41, 42, 44, 30, 43, 31, 46, 50, 33, 38], [35, 50, 45, 44, 50, 38, 40, 48, 37, 33, 41, 47, 38, 46, 49, 47, 48, 34, 43, 43, 48, 35, 31, 50, 38, 34, 50, 31, 36, 34, 50, 38, 30, 39, 41, 36, 33, 40, 44, 45, 46, 37, 35, 38, 50, 31, 37, 32, 41, 42, 43, 48, 38, 32, 33, 32, 49, 34, 43, 35], [34, 49, 45, 49, 37, 36, 33, 42, 49, 43, 32, 37, 40, 50, 46, 35, 44, 36, 30, 41, 50, 49, 50, 43, 48, 33, 46, 33, 33, 46, 34, 45, 37, 45, 49, 35, 31, 35, 43, 33, 50, 48, 40, 33, 34, 45, 48, 34, 30, 41, 44, 48, 39, 45, 41, 50, 46, 44, 41, 42], [39, 45, 39, 48, 50, 41, 30, 41, 43, 45, 45, 32, 42, 31, 37, 31, 38, 44, 37, 39, 34, 31, 41, 41, 41, 36, 45, 43, 50, 33, 50, 34, 30, 34, 46, 33, 32, 37, 42, 46, 31, 48, 49, 32, 31, 30, 33, 43, 46, 46, 42, 35, 46, 45, 30, 42, 36, 30, 43, 38]], [[0, 0, 0, 0, 0, 0, 0, 0, 0, 0, 0, 0, 0, 0, 0, 0, 0, 0, 0, 0, 0, 0, 0, 0, 0, 0, 0, 0, 0, 0, 0, 0, 0, 0, 0, 0, 0, 0, 0, 0, 0, 0, 0, 0, 0, 0, 0, 0, 0, 0, 0, 0, 0, 0, 0, 0, 0, 0, 0, 0], [0, 0, 0, 0, 0, 0, 0, 0, 0, 0, 0, 0, 0, 0, 0, 0, 0, 0, 0, 0, 0, 0, 0, 0, 0, 0, 0, 0, 0, 0, 0, 0, 0, 0, 0, 0, 0, 0, 0, 0, 0, 0, 0, 0, 0, 0, 0, 0, 0, 0, 0, 0, 0, 0, 0, 0, 0, 0, 0, 0], [0, 0, 0, 0, 0, 0, 0, 0, 0, 0, 0, 0, 0, 0, 0, 0, 0, 0, 0, 0, 0, 0, 0, 0, 0, 0, 0, 0, 0, 0, 0, 0, 0, 0, 0, 0, 0, 0, 0, 0, 0, 0, 0, 0, 0, 0, 0, 0, 0, 0, 0, 0, 0, 0, 0, 0, 0, 0, 0, 0], [0, 0, 0, 0, 0, 0, 0, 0, 0, 0, 0, 0, 0, 0, 0, 0, 0, 0, 0, 0, 0, 0, 0, 0, 0, 0, 0, 0, 0, 0, 0, 0, 0, 0, 0, 0, 0, 0, 0, 0, 0, 0, 0, 0, 0, 0, 0, 0, 0, 0, 0, 0, 0, 0, 0, 0, 0, 0, 0, 0], [0, 0, 0, 0, 0, 0, 0, 0, 0, 0, 0, 0, 0, 0, 0, 0, 0, 0, 0, 0, 0, 0, 0, 0, 0, 0, 0, 0, 0, 0, 0, 0, 0, 0, 0, 0, 0, 0, 0, 0, 0, 0, 0, 0, 0, 0, 0, 0, 0, 0, 0, 0, 0, 0, 0, 0, 0, 0, 0, 0], [46, 31, 50, 37, 41, 40, 30, 48, 44, 47, 35, 40, 32, 48, 44, 35, 41, 42, 35, 35, 48, 49, 33, 36, 35, 36, 37, 30, 43, 50, 42, 30, 33, 41, 38, 46, 44, 35, 49, 44, 48, 48, 50, 32, 40, 44, 41, 38, 40, 41, 50, 38, 46, 47, 34, 40, 33, 39, 44, 33], [31, 39, 41, 43, 38, 46, 35, 43, 41, 42, 36, 46, 33, 41, 43, 40, 44, 45, 46, 38, 45, 44, 48, 43, 45, 35, 36, 31, 44, 33, 47, 31, 50, 40, 34, 49, 35, 41, 40, 36, 38, 40, 46, 33, 33, 46, 48, 31, 40, 40, 34, 47, 40, 43, 50, 42, 33, 39, 30, 46], [34, 35, 49, 30, 35, 31, 39, 45, 30, 48, 32, 46, 33, 49, 45, 50, 31, 47, 47, 43, 45, 37, 50, 36, 38, 42, 44, 40, 45, 38, 43, 38, 45, 43, 31, 45, 50, 31, 47, 49, 49, 34, 46, 49, 32, 34, 44, 48, 35, 32, 40, 40, 47, 39, 38, 42, 31, 48, 38, 41], [37, 34, 33, 42, 39, 50, 44, 40, 39, 50, 46, 33, 48, 46, 48, 41, 43, 38, 49, 41, 48, 33, 46, 45, 40, 42, 40, 46, 41, 39, 43, 45, 43, 30, 46, 48, 33, 50, 31, 33, 45, 43, 45, 31, 35, 34, 32, 42, 44, 31, 47, 38, 32, 41, 50, 40, 49, 49, 42, 42], [44, 34, 41, 42, 47, 45, 50, 34, 47, 33, 40, 39, 45, 36, 32, 41, 33, 32, 48, 49, 43, 47, 34, 31, 39, 38, 48, 44, 46, 42, 36, 44, 44, 42, 42, 41, 32, 49, 46, 46, 48, 43, 36, 46, 47, 41, 41, 42, 43, 36, 46, 46, 33, 46, 30, 44, 42, 43, 30, 43]], [[0, 0, 0, 0, 0, 0, 0, 0, 0, 0, 0, 0, 0, 0, 0, 0, 0, 0, 0, 0, 0, 0, 0, 0, 0, 0, 0, 0, 0, 0, 0, 0, 0, 0, 0, 0, 0, 0, 0, 0, 0, 0, 0, 0, 0, 0, 0, 0, 0, 0, 0, 0, 0, 0, 0, 0, 0, 0, 0, 0], [0, 0, 0, 0, 0, 0, 0, 0, 0, 0, 0, 0, 0, 0, 0, 0, 0, 0, 0, 0, 0, 0, 0, 0, 0, 0, 0, 0, 0, 0, 0, 0, 0, 0, 0, 0, 0, 0, 0, 0, 0, 0, 0, 0, 0, 0, 0, 0, 0, 0, 0, 0, 0, 0, 0, 0, 0, 0, 0, 0], [0, 0, 0, 0, 0, 0, 0, 0, 0, 0, 0, 0, 0, 0, 0, 0, 0, 0, 0, 0, 0, 0, 0, 0, 0, 0, 0, 0, 0, 0, 0, 0, 0, 0, 0, 0, 0, 0, 0, 0, 0, 0, 0, 0, 0, 0, 0, 0, 0, 0, 0, 0, 0, 0, 0, 0, 0, 0, 0, 0], [0, 0, 0, 0, 0, 0, 0, 0, 0, 0, 0, 0, 0, 0, 0, 0, 0, 0, 0, 0, 0, 0, 0, 0, 0, 0, 0, 0, 0, 0, 0, 0, 0, 0, 0, 0, 0, 0, 0, 0, 0, 0, 0, 0, 0, 0, 0, 0, 0, 0, 0, 0, 0, 0, 0, 0, 0, 0, 0, 0], [0, 0, 0, 0, 0, 0, 0, 0, 0, 0, 0, 0, 0, 0, 0, 0, 0, 0, 0, 0, 0, 0, 0, 0, 0, 0, 0, 0, 0, 0, 0, 0, 0, 0, 0, 0, 0, 0, 0, 0, 0, 0, 0, 0, 0, 0, 0, 0, 0, 0, 0, 0, 0, 0, 0, 0, 0, 0, 0, 0], [0, 0, 0, 0, 0, 0, 0, 0, 0, 0, 0, 0, 0, 0, 0, 0, 0, 0, 0, 0, 0, 0, 0, 0, 0, 0, 0, 0, 0, 0, 0, 0, 0, 0, 0, 0, 0, 0, 0, 0, 0, 0, 0, 0, 0, 0, 0, 0, 0, 0, 0, 0, 0, 0, 0, 0, 0, 0, 0, 0], [33, 32, 49, 38, 48, 35, 38, 32, 36, 44, 39, 36, 34, 37, 35, 50, 46, 32, 42, 44, 50, 31, 36, 46, 36, 42, 40, 45, 35, 48, 41, 40, 46, 48, 32, 41, 32, 38, 45, 39, 46, 47, 36, 49, 31, 39, 47, 41, 34, 50, 41, 41, 45, 37, 48, 44, 35, 40, 35, 36], [30, 45, 50, 38, 44, 37, 44, 35, 37, 44, 35, 48, 42, 40, 50, 35, 33, 45, 43, 49, 47, 34, 38, 42, 43, 39, 35, 36, 44, 37, 33, 37, 32, 47, 48, 42, 33, 42, 31, 47, 36, 40, 46, 45, 39, 36, 50, 42, 34, 40, 38, 31, 42, 34, 40, 38, 30, 50, 47, 48], [31, 39, 36, 46, 35, 46, 50, 46, 32, 48, 50, 35, 36, 45, 39, 39, 34, 43, 36, 44, 46, 44, 47, 31, 45, 41, 49, 39, 33, 42, 31, 49, 48, 44, 50, 42, 35, 43, 31, 37, 45, 42, 32, 40, 37, 33, 37, 47, 39, 35, 39, 46, 50, 38, 47, 37, 41, 43, 47, 45], [32, 40, 40, 49, 45, 40, 33, 46, 30, 41, 42, 50, 48, 43, 38, 30, 31, 44, 41, 39, 33, 45, 48, 50, 30, 46, 39, 34, 35, 50, 45, 31, 33, 43, 47, 31, 35, 36, 44, 32, 39, 31, 40, 48, 39, 37, 44, 32, 32, 43, 40, 42, 37, 36, 35, 40, 44, 44, 33, 44]], [[0, 0, 0, 0, 0, 0, 0, 0, 0, 0, 0, 0, 0, 0, 0, 0, 0, 0, 0, 0, 0, 0, 0, 0, 0, 0, 0, 0, 0, 0, 0, 0, 0, 0, 0, 0, 0, 0, 0, 0, 0, 0, 0, 0, 0, 0, 0, 0, 0, 0, 0, 0, 0, 0, 0, 0, 0, 0, 0, 0], [0, 0, 0, 0, 0, 0, 0, 0, 0, 0, 0, 0, 0, 0, 0, 0, 0, 0, 0, 0, 0, 0, 0, 0, 0, 0, 0, 0, 0, 0, 0, 0, 0, 0, 0, 0, 0, 0, 0, 0, 0, 0, 0, 0, 0, 0, 0, 0, 0, 0, 0, 0, 0, 0, 0, 0, 0, 0, 0, 0], [0, 0, 0, 0, 0, 0, 0, 0, 0, 0, 0, 0, 0, 0, 0, 0, 0, 0, 0, 0, 0, 0, 0, 0, 0, 0, 0, 0, 0, 0, 0, 0, 0, 0, 0, 0, 0, 0, 0, 0, 0, 0, 0, 0, 0, 0, 0, 0, 0, 0, 0, 0, 0, 0, 0, 0, 0, 0, 0, 0], [0, 0, 0, 0, 0, 0, 0, 0, 0, 0, 0, 0, 0, 0, 0, 0, 0, 0, 0, 0, 0, 0, 0, 0, 0, 0, 0, 0, 0, 0, 0, 0, 0, 0, 0, 0, 0, 0, 0, 0, 0, 0, 0, 0, 0, 0, 0, 0, 0, 0, 0, 0, 0, 0, 0, 0, 0, 0, 0, 0], [0, 0, 0, 0, 0, 0, 0, 0, 0, 0, 0, 0, 0, 0, 0, 0, 0, 0, 0, 0, 0, 0, 0, 0, 0, 0, 0, 0, 0, 0, 0, 0, 0, 0, 0, 0, 0, 0, 0, 0, 0, 0, 0, 0, 0, 0, 0, 0, 0, 0, 0, 0, 0, 0, 0, 0, 0, 0, 0, 0], [0, 0, 0, 0, 0, 0, 0, 0, 0, 0, 0, 0, 0, 0, 0, 0, 0, 0, 0, 0, 0, 0, 0, 0, 0, 0, 0, 0, 0, 0, 0, 0, 0, 0, 0, 0, 0, 0, 0, 0, 0, 0, 0, 0, 0, 0, 0, 0, 0, 0, 0, 0, 0, 0, 0, 0, 0, 0, 0, 0], [0, 0, 0, 0, 0, 0, 0, 0, 0, 0, 0, 0, 0, 0, 0, 0, 0, 0, 0, 0, 0, 0, 0, 0, 0, 0, 0, 0, 0, 0, 0, 0, 0, 0, 0, 0, 0, 0, 0, 0, 0, 0, 0, 0, 0, 0, 0, 0, 0, 0, 0, 0, 0, 0, 0, 0, 0, 0, 0, 0], [35, 40, 39, 50, 32, 48, 43, 46, 41, 31, 44, 43, 39, 48, 44, 40, 48, 42, 43, 32, 48, 45, 48, 35, 39, 46, 46, 43, 38, 31, 40, 43, 39, 32, 48, 48, 30, 31, 32, 46, 45, 48, 35, 46, 48, 43, 50, 40, 45, 41, 33, 34, 36, 41, 42, 47, 36, 33, 32, 31], [40, 42, 37, 50, 44, 43, 42, 50, 30, 50, 39, 38, 35, 30, 36, 49, 46, 41, 47, 48, 42, 35, 37, 33, 41, 43, 49, 39, 39, 47, 31, 41, 36, 50, 49, 31, 44, 41, 41, 37, 31, 41, 33, 43, 50, 40, 30, 38, 42, 31, 38, 45, 47, 46, 32, 31, 33, 49, 47, 43], [32, 50, 33, 31, 30, 37, 30, 32, 38, 46, 43, 47, 49, 40, 41, 35, 33, 42, 45, 34, 36, 50, 30, 47, 47, 34, 39, 32, 40, 47, 37, 39, 33, 38, 45, 37, 35, 50, 37, 45, 50, 48, 43, 38, 34, 33, 40, 35, 44, 39, 49, 35, 36, 47, 45, 34, 35, 50, 48, 49]], [[0, 0, 0, 0, 0, 0, 0, 0, 0, 0, 0, 0, 0, 0, 0, 0, 0, 0, 0, 0, 0, 0, 0, 0, 0, 0, 0, 0, 0, 0, 0, 0, 0, 0, 0, 0, 0, 0, 0, 0, 0, 0, 0, 0, 0, 0, 0, 0, 0, 0, 0, 0, 0, 0, 0, 0, 0, 0, 0, 0], [0, 0, 0, 0, 0, 0, 0, 0, 0, 0, 0, 0, 0, 0, 0, 0, 0, 0, 0, 0, 0, 0, 0, 0, 0, 0, 0, 0, 0, 0, 0, 0, 0, 0, 0, 0, 0, 0, 0, 0, 0, 0, 0, 0, 0, 0, 0, 0, 0, 0, 0, 0, 0, 0, 0, 0, 0, 0, 0, 0], [0, 0, 0, 0, 0, 0, 0, 0, 0, 0, 0, 0, 0, 0, 0, 0, 0, 0, 0, 0, 0, 0, 0, 0, 0, 0, 0, 0, 0, 0, 0, 0, 0, 0, 0, 0, 0, 0, 0, 0, 0, 0, 0, 0, 0, 0, 0, 0, 0, 0, 0, 0, 0, 0, 0, 0, 0, 0, 0, 0], [0, 0, 0, 0, 0, 0, 0, 0, 0, 0, 0, 0, 0, 0, 0, 0, 0, 0, 0, 0, 0, 0, 0, 0, 0, 0, 0, 0, 0, 0, 0, 0, 0, 0, 0, 0, 0, 0, 0, 0, 0, 0, 0, 0, 0, 0, 0, 0, 0, 0, 0, 0, 0, 0, 0, 0, 0, 0, 0, 0], [0, 0, 0, 0, 0, 0, 0, 0, 0, 0, 0, 0, 0, 0, 0, 0, 0, 0, 0, 0, 0, 0, 0, 0, 0, 0, 0, 0, 0, 0, 0, 0, 0, 0, 0, 0, 0, 0, 0, 0, 0, 0, 0, 0, 0, 0, 0, 0, 0, 0, 0, 0, 0, 0, 0, 0, 0, 0, 0, 0], [0, 0, 0, 0, 0, 0, 0, 0, 0, 0, 0, 0, 0, 0, 0, 0, 0, 0, 0, 0, 0, 0, 0, 0, 0, 0, 0, 0, 0, 0, 0, 0, 0, 0, 0, 0, 0, 0, 0, 0, 0, 0, 0, 0, 0, 0, 0, 0, 0, 0, 0, 0, 0, 0, 0, 0, 0, 0, 0, 0], [0, 0, 0, 0, 0, 0, 0, 0, 0, 0, 0, 0, 0, 0, 0, 0, 0, 0, 0, 0, 0, 0, 0, 0, 0, 0, 0, 0, 0, 0, 0, 0, 0, 0, 0, 0, 0, 0, 0, 0, 0, 0, 0, 0, 0, 0, 0, 0, 0, 0, 0, 0, 0, 0, 0, 0, 0, 0, 0, 0], [0, 0, 0, 0, 0, 0, 0, 0, 0, 0, 0, 0, 0, 0, 0, 0, 0, 0, 0, 0, 0, 0, 0, 0, 0, 0, 0, 0, 0, 0, 0, 0, 0, 0, 0, 0, 0, 0, 0, 0, 0, 0, 0, 0, 0, 0, 0, 0, 0, 0, 0, 0, 0, 0, 0, 0, 0, 0, 0, 0], [39, 48, 30, 40, 40, 45, 44, 38, 48, 47, 41, 40, 41, 42, 40, 41, 47, 33, 45, 38, 30, 49, 33, 30, 38, 41, 47, 35, 39, 45, 35, 36, 45, 34, 42, 49, 49, 31, 37, 41, 39, 42, 40, 30, 35, 49, 50, 43, 40, 44, 40, 48, 46, 33, 30, 39, 43, 43, 48, 39], [37, 30, 48, 35, 30, 46, 46, 31, 38, 34, 45, 31, 43, 46, 42, 35, 30, 30, 35, 49, 49, 46, 48, 39, 47, 37, 40, 47, 33, 32, 44, 34, 30, 36, 30, 37, 43, 30, 38, 45, 32, 37, 45, 31, 46, 33, 50, 33, 45, 49, 44, 37, 47, 31, 47, 40, 49, 50, 49, 33]], [[0, 0, 0, 0, 0, 0, 0, 0, 0, 0, 0, 0, 0, 0, 0, 0, 0, 0, 0, 0, 0, 0, 0, 0, 0, 0, 0, 0, 0, 0, 0, 0, 0, 0, 0, 0, 0, 0, 0, 0, 0, 0, 0, 0, 0, 0, 0, 0, 0, 0, 0, 0, 0, 0, 0, 0, 0, 0, 0, 0], [0, 0, 0, 0, 0, 0, 0, 0, 0, 0, 0, 0, 0, 0, 0, 0, 0, 0, 0, 0, 0, 0, 0, 0, 0, 0, 0, 0, 0, 0, 0, 0, 0, 0, 0, 0, 0, 0, 0, 0, 0, 0, 0, 0, 0, 0, 0, 0, 0, 0, 0, 0, 0, 0, 0, 0, 0, 0, 0, 0], [0, 0, 0, 0, 0, 0, 0, 0, 0, 0, 0, 0, 0, 0, 0, 0, 0, 0, 0, 0, 0, 0, 0, 0, 0, 0, 0, 0, 0, 0, 0, 0, 0, 0, 0, 0, 0, 0, 0, 0, 0, 0, 0, 0, 0, 0, 0, 0, 0, 0, 0, 0, 0, 0, 0, 0, 0, 0, 0, 0], [0, 0, 0, 0, 0, 0, 0, 0, 0, 0, 0, 0, 0, 0, 0, 0, 0, 0, 0, 0, 0, 0, 0, 0, 0, 0, 0, 0, 0, 0, 0, 0, 0, 0, 0, 0, 0, 0, 0, 0, 0, 0, 0, 0, 0, 0, 0, 0, 0, 0, 0, 0, 0, 0, 0, 0, 0, 0, 0, 0], [0, 0, 0, 0, 0, 0, 0, 0, 0, 0, 0, 0, 0, 0, 0, 0, 0, 0, 0, 0, 0, 0, 0, 0, 0, 0, 0, 0, 0, 0, 0, 0, 0, 0, 0, 0, 0, 0, 0, 0, 0, 0, 0, 0, 0, 0, 0, 0, 0, 0, 0, 0, 0, 0, 0, 0, 0, 0, 0, 0], [0, 0, 0, 0, 0, 0, 0, 0, 0, 0, 0, 0, 0, 0, 0, 0, 0, 0, 0, 0, 0, 0, 0, 0, 0, 0, 0, 0, 0, 0, 0, 0, 0, 0, 0, 0, 0, 0, 0, 0, 0, 0, 0, 0, 0, 0, 0, 0, 0, 0, 0, 0, 0, 0, 0, 0, 0, 0, 0, 0], [0, 0, 0, 0, 0, 0, 0, 0, 0, 0, 0, 0, 0, 0, 0, 0, 0, 0, 0, 0, 0, 0, 0, 0, 0, 0, 0, 0, 0, 0, 0, 0, 0, 0, 0, 0, 0, 0, 0, 0, 0, 0, 0, 0, 0, 0, 0, 0, 0, 0, 0, 0, 0, 0, 0, 0, 0, 0, 0, 0], [0, 0, 0, 0, 0, 0, 0, 0, 0, 0, 0, 0, 0, 0, 0, 0, 0, 0, 0, 0, 0, 0, 0, 0, 0, 0, 0, 0, 0, 0, 0, 0, 0, 0, 0, 0, 0, 0, 0, 0, 0, 0, 0, 0, 0, 0, 0, 0, 0, 0, 0, 0, 0, 0, 0, 0, 0, 0, 0, 0], [0, 0, 0, 0, 0, 0, 0, 0, 0, 0, 0, 0, 0, 0, 0, 0, 0, 0, 0, 0, 0, 0, 0, 0, 0, 0, 0, 0, 0, 0, 0, 0, 0, 0, 0, 0, 0, 0, 0, 0, 0, 0, 0, 0, 0, 0, 0, 0, 0, 0, 0, 0, 0, 0, 0, 0, 0, 0, 0, 0], [32, 31, 37, 34, 39, 35, 50, 43, 49, 31, 50, 49, 34, 35, 33, 44, 38, 36, 35, 41, 43, 45, 35, 38, 34, 49, 33, 33, 50, 35, 36, 36, 36, 42, 50, 33, 37, 36, 41, 36, 43, 36, 38, 31, 45, 47, 48, 33, 39, 49, 33, 32, 43, 47, 39, 49, 36, 36, 48, 39]], [[0, 0, 0, 0, 0, 0, 0, 0, 0, 0, 0, 0, 0, 0, 0, 0, 0, 0, 0, 0, 0, 0, 0, 0, 0, 0, 0, 0, 0, 0, 0, 0, 0, 0, 0, 0, 0, 0, 0, 0, 0, 0, 0, 0, 0, 0, 0, 0, 0, 0, 0, 0, 0, 0, 0, 0, 0, 0, 0, 0], [0, 0, 0, 0, 0, 0, 0, 0, 0, 0, 0, 0, 0, 0, 0, 0, 0, 0, 0, 0, 0, 0, 0, 0, 0, 0, 0, 0, 0, 0, 0, 0, 0, 0, 0, 0, 0, 0, 0, 0, 0, 0, 0, 0, 0, 0, 0, 0, 0, 0, 0, 0, 0, 0, 0, 0, 0, 0, 0, 0], [0, 0, 0, 0, 0, 0, 0, 0, 0, 0, 0, 0, 0, 0, 0, 0, 0, 0, 0, 0, 0, 0, 0, 0, 0, 0, 0, 0, 0, 0, 0, 0, 0, 0, 0, 0, 0, 0, 0, 0, 0, 0, 0, 0, 0, 0, 0, 0, 0, 0, 0, 0, 0, 0, 0, 0, 0, 0, 0, 0], [0, 0, 0, 0, 0, 0, 0, 0, 0, 0, 0, 0, 0, 0, 0, 0, 0, 0, 0, 0, 0, 0, 0, 0, 0, 0, 0, 0, 0, 0, 0, 0, 0, 0, 0, 0, 0, 0, 0, 0, 0, 0, 0, 0, 0, 0, 0, 0, 0, 0, 0, 0, 0, 0, 0, 0, 0, 0, 0, 0], [0, 0, 0, 0, 0, 0, 0, 0, 0, 0, 0, 0, 0, 0, 0, 0, 0, 0, 0, 0, 0, 0, 0, 0, 0, 0, 0, 0, 0, 0, 0, 0, 0, 0, 0, 0, 0, 0, 0, 0, 0, 0, 0, 0, 0, 0, 0, 0, 0, 0, 0, 0, 0, 0, 0, 0, 0, 0, 0, 0], [0, 0, 0, 0, 0, 0, 0, 0, 0, 0, 0, 0, 0, 0, 0, 0, 0, 0, 0, 0, 0, 0, 0, 0, 0, 0, 0, 0, 0, 0, 0, 0, 0, 0, 0, 0, 0, 0, 0, 0, 0, 0, 0, 0, 0, 0, 0, 0, 0, 0, 0, 0, 0, 0, 0, 0, 0, 0, 0, 0], [0, 0, 0, 0, 0, 0, 0, 0, 0, 0, 0, 0, 0, 0, 0, 0, 0, 0, 0, 0, 0, 0, 0, 0, 0, 0, 0, 0, 0, 0, 0, 0, 0, 0, 0, 0, 0, 0, 0, 0, 0, 0, 0, 0, 0, 0, 0, 0, 0, 0, 0, 0, 0, 0, 0, 0, 0, 0, 0, 0], [0, 0, 0, 0, 0, 0, 0, 0, 0, 0, 0, 0, 0, 0, 0, 0, 0, 0, 0, 0, 0, 0, 0, 0, 0, 0, 0, 0, 0, 0, 0, 0, 0, 0, 0, 0, 0, 0, 0, 0, 0, 0, 0, 0, 0, 0, 0, 0, 0, 0, 0, 0, 0, 0, 0, 0, 0, 0, 0, 0], [0, 0, 0, 0, 0, 0, 0, 0, 0, 0, 0, 0, 0, 0, 0, 0, 0, 0, 0, 0, 0, 0, 0, 0, 0, 0, 0, 0, 0, 0, 0, 0, 0, 0, 0, 0, 0, 0, 0, 0, 0, 0, 0, 0, 0, 0, 0, 0, 0, 0, 0, 0, 0, 0, 0, 0, 0, 0, 0, 0], [0, 0, 0, 0, 0, 0, 0, 0, 0, 0, 0, 0, 0, 0, 0, 0, 0, 0, 0, 0, 0, 0, 0, 0, 0, 0, 0, 0, 0, 0, 0, 0, 0, 0, 0, 0, 0, 0, 0, 0, 0, 0, 0, 0, 0, 0, 0, 0, 0, 0, 0, 0, 0, 0, 0, 0, 0, 0, 0, 0]]];

q = [[[5], [5], [6], [14], [22], [22], [18], [5], [6], [15], [18], [23], [17], [8], [8], [25], [13], [24], [18], [14], [6], [13], [11], [13], [14], [7], [11], [9], [20], [8], [6], [8], [15], [9], [9], [19], [22], [21], [8], [12], [6], [11], [7], [20], [11], [23], [14], [19], [23], [20], [10], [6], [16], [13], [24], [24], [10], [20], [14], [16]], [[11], [11], [14], [11], [8], [15], [17], [18], [19], [5], [10], [23], [15], [10], [12], [6], [11], [22], [19], [12], [22], [12], [7], [7], [21], [9], [7], [20], [11], [19], [6], [20], [22], [5], [14], [21], [15], [17], [17], [19], [5], [22], [5], [5], [17], [24], [12], [16], [19], [11], [6], [12], [24], [18], [24], [23], [13], [11], [20], [19]], [[6], [21], [24], [14], [12], [18], [23], [25], [10], [10], [7], [7], [25], [17], [24], [8], [17], [5], [8], [24], [6], [13], [15], [17], [14], [5], [25], [5], [19], [20], [15], [18], [16], [9], [7], [18], [6], [7], [10], [6], [25], [24], [6], [7], [15], [18], [13], [13], [22], [20], [19], [7], [17], [5], [18], [18], [9], [16], [20], [17]], [[24], [15], [16], [25], [21], [16], [5], [15], [21], [23], [15], [23], [13], [19], [18], [13], [16], [7], [11], [20], [5], [17], [21], [14], [14], [7], [10], [17], [22], [6], [21], [18], [7], [19], [8], [16], [21], [24], [20], [8], [16], [14], [10], [24], [14], [9], [24], [12], [23], [15], [8], [25], [6], [13], [25], [6], [15], [21], [5], [17]], [[20], [16], [20], [6], [25], [16], [19], [20], [12], [7], [24], [13], [14], [18], [22], [20], [17], [21], [6], [13], [13], [25], [19], [25], [19], [7], [24], [5], [24], [17], [25], [15], [14], [10], [8], [13], [5], [20], [17], [22], [18], [7], [5], [24], [23], [10], [13], [22], [16], [15], [9], [13], [11], [24], [7], [14], [18], [11], [17], [6]], [[13], [23], [15], [5], [21], [17], [16], [16], [18], [18], [19], [5], [19], [21], [24], [7], [16], [6], [19], [14], [15], [15], [8], [25], [6], [24], [8], [18], [10], [17], [13], [19], [20], [8], [8], [16], [11], [18], [17], [15], [18], [8], [6], [21], [12], [15], [12], [21], [22], [17], [20], [20], [20], [16], [6], [11], [17], [12], [19], [11]], [[18], [21], [16], [19], [21], [11], [21], [22], [12], [14], [20], [19], [19], [7], [7], [8], [19], [21], [22], [11], [8], [8], [12], [12], [7], [5], [5], [23], [8], [11], [15], [11], [24], [9], [21], [18], [25], [10], [19], [19], [10], [13], [21], [5], [15], [16], [5], [22], [12], [24], [24], [18], [24], [14], [6], [9], [10], [15], [25], [20]], [[8], [13], [20], [9], [19], [15], [12], [25], [8], [18], [20], [12], [25], [17], [15], [7], [15], [9], [23], [25], [6], [20], [5], [9], [21], [16], [21], [10], [22], [10], [17], [25], [7], [21], [18], [5], [25], [14], [25], [13], [17], [11], [8], [17], [18], [13], [9], [20], [5], [12], [19], [16], [14], [15], [8], [22], [22], [11], [14], [16]], [[18], [24], [15], [20], [8], [12], [11], [23], [24], [8], [23], [15], [24], [22], [17], [17], [8], [13], [18], [6], [21], [13], [9], [18], [8], [16], [16], [12], [25], [20], [24], [9], [21], [18], [17], [9], [25], [17], [20], [12], [18], [17], [15], [10], [19], [11], [8], [9], [18], [5], [17], [23], [14], [17], [6], [13], [20], [23], [12], [23]], [[13], [10], [21], [6], [18], [23], [9], [24], [9], [10], [5], [12], [19], [11], [24], [6], [21], [14], [10], [22], [18], [22], [12], [6], [15], [25], [21], [15], [13], [17], [24], [12], [13], [12], [20], [13], [18], [24], [11], [6], [9], [17], [21], [18], [24], [15], [16], [14], [24], [10], [11], [16], [5], [25], [21], [16], [24], [12], [24], [13]]];
Q = [[66], [69], [69], [74], [75], [72], [72], [72], [76], [75]];
